p cnf 31 86
a 12 20 0
e 1 2 3 4 5 6 7 8 9 10 11 13 14 15 16 17 18 19 21 22 23 24 25 26 27 28 29 30 31 0
-1 2 -3 0
1 -2 -3 0
-1 -2 3 0
1 2 3 0
-6 -4 0
-6 -5 0
4 5 6 0
-7 2 -8 0
7 -2 -8 0
-7 -2 8 0
7 2 8 0
-10 9 0
-10 -4 0
-9 4 10 0
-11 -8 0
-11 10 0
8 -10 11 0
14 12 0
14 -1 0
-12 1 -14 0
15 13 0
15 -14 0
-13 14 -15 0
-16 -15 0
-16 4 0
15 -4 16 0
-17 -12 0
-17 -16 0
12 16 17 0
11 -17 -18 0
-11 17 -18 0
11 17 18 0
-11 -17 18 0
19 6 0
19 18 0
-6 -18 -19 0
1 12 -20 0
-1 -12 -20 0
1 -12 20 0
-1 12 20 0
21 -8 0
21 20 0
8 -20 -21 0
2 -12 -22 0
-2 12 -22 0
2 12 22 0
-2 -12 22 0
-23 -21 0
-23 22 0
21 -22 23 0
-24 4 0
-24 -9 0
-4 9 24 0
-14 -13 -25 0
14 13 -25 0
-14 13 25 0
14 -13 25 0
26 15 0
26 -20 0
-15 20 -26 0
-27 -25 0
-27 -26 0
25 26 27 0
-28 24 0
-28 -27 0
-24 27 28 0
-23 -28 -29 0
23 28 -29 0
-23 28 29 0
23 -28 29 0
-30 -19 0
-30 29 0
19 -29 30 0
3 30 -31 0
-3 -30 -31 0
3 -30 31 0
-3 30 31 0
4 19 30 -15 0
-29 17 -4 -10 -6 20 3 0
1 28 -4 -21 22 0
-19 -21 0
10 -29 -11 2 24 17 4 0
-7 19 -23 0
4 27 -25 -8 -29 -26 -24 0
-20 -16 30 -27 14 6 -2 -1 0
31 0
